SDVRP instances/custom_instances/p10_5_split0.vrp
NAME:p10_5_split
BEST_KNOWN: 0
COMMENT: 0
DIMENSION: 938
CAPACITY: 200
EDGE_WEIGHT_FORMAT: FUNCTION
EDGE_WEIGHT_TYPE: EXACT_2D
NODE_COORD_SECTION
1 0.00000 0.00000
2 49 -17
3 49 -17
4 49 -17
5 49 -17
6 49 -17
7 49 -17
8 49 -17
9 49 -17
10 -50 32
11 -50 32
12 -50 32
13 -50 32
14 -50 32
15 -50 32
16 -12 21
17 -12 21
18 -44 27
19 -44 27
20 -44 27
21 -44 27
22 -44 27
23 -42 -20
24 -42 -20
25 -42 -20
26 -13 49
27 -13 49
28 -13 49
29 -13 49
30 -13 49
31 -13 49
32 -13 49
33 -2 -28
34 -2 -28
35 -2 -28
36 -2 -28
37 -2 -28
38 -2 -28
39 17 -19
40 17 -19
41 17 -19
42 14 34
43 14 34
44 14 34
45 14 34
46 14 34
47 14 34
48 -14 6
49 -14 6
50 -14 6
51 -14 6
52 -14 6
53 -14 6
54 -14 6
55 32 28
56 32 28
57 32 28
58 32 28
59 32 28
60 15 -48
61 15 -48
62 15 -48
63 -14 -10
64 -14 -10
65 -14 -10
66 -24 -17
67 -24 -17
68 -24 -17
69 -24 -17
70 -24 -17
71 -24 -17
72 -24 -17
73 32 27
74 32 27
75 32 27
76 32 27
77 -34 41
78 -34 41
79 -34 41
80 -34 41
81 -34 41
82 8 -3
83 8 -3
84 8 -3
85 8 -3
86 8 -3
87 8 -3
88 -22 12
89 -22 12
90 -22 12
91 -22 12
92 -22 12
93 -22 12
94 11 30
95 11 30
96 11 30
97 11 30
98 11 30
99 12 -27
100 12 -27
101 12 -27
102 14 24
103 14 24
104 14 24
105 14 24
106 2 32
107 2 32
108 2 32
109 2 32
110 2 32
111 2 32
112 -39 -29
113 -39 -29
114 -39 -29
115 -39 -29
116 -39 -29
117 -39 -29
118 -44 35
119 -44 35
120 -44 35
121 -44 35
122 -44 35
123 -44 35
124 29 26
125 29 26
126 29 26
127 29 26
128 29 26
129 29 26
130 29 26
131 2 30
132 2 30
133 2 30
134 -39 10
135 -39 10
136 7 -18
137 7 -18
138 7 -18
139 7 -18
140 7 -18
141 7 -18
142 -22 38
143 -22 38
144 -22 38
145 -22 38
146 -22 38
147 -34 -25
148 -34 -25
149 -34 -25
150 11 -10
151 11 -10
152 11 -10
153 11 -10
154 11 -10
155 11 -10
156 7 2
157 7 2
158 7 2
159 7 2
160 19 31
161 19 31
162 19 31
163 19 31
164 19 31
165 2 -19
166 2 -19
167 2 -19
168 2 -19
169 2 -19
170 16 38
171 16 38
172 16 38
173 -35 47
174 -35 47
175 -35 47
176 -35 47
177 -35 47
178 -35 47
179 7 -7
180 7 -7
181 7 -7
182 7 -7
183 7 -7
184 7 -7
185 11 36
186 11 36
187 11 36
188 11 36
189 11 36
190 -49 5
191 -49 5
192 -49 5
193 -49 5
194 -49 5
195 -49 5
196 11 -37
197 11 -37
198 11 -37
199 11 -37
200 -18 39
201 -18 39
202 -18 39
203 -18 39
204 -18 39
205 -11 50
206 -11 50
207 -11 50
208 -11 50
209 -11 50
210 -11 50
211 21 -33
212 21 -33
213 21 -33
214 21 -33
215 -20 39
216 -20 39
217 -20 39
218 24 -46
219 24 -46
220 24 -46
221 24 -46
222 -2 -26
223 -2 -26
224 -2 -26
225 18 -32
226 18 -32
227 18 -32
228 18 -32
229 5 -6
230 5 -6
231 5 -6
232 5 -6
233 5 -6
234 25 34
235 25 34
236 -32 4
237 -32 4
238 -32 4
239 -32 4
240 -32 4
241 -32 4
242 -32 4
243 46 49
244 46 49
245 46 49
246 46 49
247 46 49
248 46 49
249 -41 41
250 -41 41
251 -41 41
252 -41 41
253 -41 41
254 -41 41
255 -13 -2
256 -13 -2
257 -13 -2
258 -13 -2
259 -13 -2
260 -21 30
261 -21 30
262 -21 30
263 -21 30
264 -21 30
265 -21 30
266 -21 30
267 -2 46
268 -2 46
269 -2 46
270 -2 46
271 -2 46
272 -22 46
273 -22 46
274 -22 46
275 -22 46
276 -22 46
277 32 8
278 32 8
279 32 8
280 32 8
281 32 8
282 44 -23
283 44 -23
284 44 -23
285 44 -23
286 44 -23
287 25 33
288 25 33
289 25 33
290 25 33
291 25 33
292 25 33
293 -2 20
294 -2 20
295 -2 20
296 11 26
297 11 26
298 11 26
299 11 26
300 31 50
301 31 50
302 31 50
303 31 50
304 31 50
305 -10 33
306 -10 33
307 -10 33
308 -10 33
309 -10 33
310 -10 33
311 0 -43
312 0 -43
313 0 -43
314 0 -43
315 -7 9
316 -7 9
317 -7 9
318 43 -47
319 43 -47
320 43 -47
321 26 -11
322 26 -11
323 26 -11
324 26 -11
325 26 -11
326 48 -34
327 48 -34
328 48 -34
329 48 -34
330 48 -34
331 48 -34
332 48 -34
333 38 39
334 38 39
335 38 39
336 -18 -24
337 -18 -24
338 -18 -24
339 -18 -24
340 -18 -24
341 11 -44
342 11 -44
343 11 -44
344 11 -44
345 -2 -31
346 -2 -31
347 -2 -31
348 -2 -31
349 -2 -31
350 -2 -31
351 -2 -31
352 13 -48
353 13 -48
354 13 -48
355 13 -48
356 13 -48
357 13 -48
358 16 -17
359 16 -17
360 16 -17
361 16 -17
362 16 -17
363 16 -17
364 -42 20
365 -42 20
366 -42 20
367 -42 20
368 -42 20
369 -42 20
370 -36 -31
371 -36 -31
372 -36 -31
373 -36 -31
374 36 49
375 36 49
376 36 49
377 -39 -2
378 -39 -2
379 -39 -2
380 10 22
381 10 22
382 10 22
383 10 22
384 10 22
385 34 -27
386 34 -27
387 34 -27
388 10 -49
389 10 -49
390 10 -49
391 41 -11
392 41 -11
393 41 -11
394 41 45
395 41 45
396 41 45
397 41 45
398 41 45
399 -13 -1
400 -13 -1
401 -13 -1
402 -37 -6
403 -37 -6
404 -37 -6
405 -37 -6
406 -37 -6
407 -37 -6
408 -37 -6
409 -41 -14
410 -41 -14
411 -41 -14
412 -41 -14
413 -10 -3
414 -10 -3
415 -10 -3
416 -10 -3
417 -10 -3
418 -10 -3
419 -10 -3
420 42 -25
421 42 -25
422 42 -25
423 42 -25
424 42 -25
425 42 -25
426 42 -25
427 -2 -5
428 -2 -5
429 -2 -5
430 -2 -5
431 -42 -35
432 -42 -35
433 -42 -35
434 17 24
435 17 24
436 17 24
437 17 24
438 17 24
439 17 24
440 -27 16
441 -27 16
442 -27 16
443 -27 16
444 -27 16
445 -14 -32
446 -14 -32
447 -14 -32
448 -14 -32
449 -14 -32
450 -14 -32
451 -14 -32
452 -8 -35
453 -8 -35
454 -8 -35
455 -8 -35
456 42 35
457 42 35
458 42 35
459 42 35
460 42 35
461 42 35
462 33 33
463 33 33
464 -8 -37
465 -8 -37
466 -8 -37
467 -8 -37
468 -8 -37
469 -8 -37
470 -46 -50
471 -46 -50
472 -46 -50
473 -46 -50
474 -46 -50
475 -46 -50
476 37 50
477 37 50
478 37 50
479 37 50
480 37 50
481 -11 -47
482 -11 -47
483 -11 -47
484 -11 -47
485 -11 -47
486 -11 -47
487 6 46
488 6 46
489 6 46
490 6 46
491 6 46
492 6 46
493 -14 -18
494 -14 -18
495 -14 -18
496 -26 -37
497 -26 -37
498 -26 -37
499 -26 -37
500 38 -40
501 38 -40
502 -34 46
503 -34 46
504 -34 46
505 -34 46
506 -34 46
507 -34 46
508 -44 25
509 -44 25
510 -44 25
511 -44 25
512 -44 25
513 -44 25
514 27 2
515 27 2
516 27 2
517 27 2
518 -36 -26
519 -36 -26
520 -36 -26
521 -39 41
522 -39 41
523 -39 41
524 -39 41
525 17 22
526 17 22
527 17 22
528 17 22
529 1 -49
530 1 -49
531 1 -49
532 1 -49
533 1 -49
534 1 -49
535 -50 3
536 -50 3
537 35 5
538 35 5
539 35 5
540 35 5
541 35 5
542 -4 -16
543 -4 -16
544 -4 -16
545 -4 -16
546 -4 -16
547 -15 3
548 -15 3
549 -15 3
550 -15 3
551 -15 3
552 9 -12
553 9 -12
554 9 -12
555 9 -12
556 9 -12
557 23 39
558 23 39
559 23 39
560 23 39
561 -37 6
562 -37 6
563 -37 6
564 -37 6
565 -12 -37
566 -12 -37
567 -12 -37
568 -12 -37
569 -12 -37
570 -12 -37
571 25 25
572 25 25
573 25 25
574 -42 -13
575 -42 -13
576 -42 -13
577 -42 -13
578 -42 -13
579 -42 -13
580 -42 -13
581 -42 -13
582 -34 -11
583 -34 -11
584 -34 -11
585 -34 -11
586 -34 -11
587 -34 -11
588 -34 -11
589 25 21
590 25 21
591 25 21
592 25 21
593 25 21
594 28 5
595 28 5
596 28 5
597 28 5
598 9 36
599 9 36
600 9 36
601 9 36
602 9 36
603 9 36
604 20 -5
605 20 -5
606 20 -5
607 20 -5
608 20 -5
609 20 -5
610 0 -5
611 0 -5
612 0 -5
613 0 -5
614 0 -5
615 0 -5
616 -24 35
617 -24 35
618 -24 35
619 -24 35
620 -29 -1
621 -29 -1
622 -29 -1
623 11 18
624 11 18
625 11 18
626 11 18
627 11 18
628 3 -11
629 3 -11
630 3 -11
631 3 -11
632 -42 -3
633 -42 -3
634 -42 -3
635 -42 -3
636 26 -24
637 26 -24
638 26 -24
639 -50 -5
640 -50 -5
641 -50 -5
642 40 0
643 40 0
644 40 0
645 40 0
646 40 0
647 40 0
648 40 0
649 49 -23
650 8 32
651 8 32
652 8 32
653 8 32
654 8 32
655 33 -40
656 33 -40
657 2 -39
658 2 -39
659 2 -39
660 2 -39
661 2 -39
662 2 -39
663 -8 -46
664 -8 -46
665 -8 -46
666 -8 -46
667 -8 -46
668 -8 -46
669 -13 29
670 -13 29
671 -13 29
672 -13 29
673 -13 29
674 40 7
675 40 7
676 40 7
677 40 7
678 40 7
679 40 7
680 -50 40
681 -50 40
682 -50 40
683 -46 -36
684 -46 -36
685 -46 -36
686 -46 -36
687 -46 -36
688 -46 -36
689 -46 -36
690 17 -24
691 17 -24
692 13 7
693 13 7
694 13 7
695 13 7
696 13 7
697 13 7
698 13 7
699 26 -49
700 26 -49
701 26 -49
702 26 -49
703 26 -49
704 26 -49
705 26 -49
706 -14 50
707 -14 50
708 -14 50
709 -14 50
710 42 -30
711 42 -30
712 42 -30
713 42 -30
714 42 -30
715 -1 13
716 -1 13
717 -1 13
718 -1 13
719 -1 13
720 -1 13
721 -43 0
722 -43 0
723 -43 0
724 -43 0
725 -43 0
726 -25 33
727 -25 33
728 -25 33
729 -25 33
730 -25 33
731 -25 33
732 -50 -47
733 -50 -47
734 -50 -47
735 -49 -3
736 -49 -3
737 -49 -3
738 -49 -3
739 -49 -3
740 6 49
741 6 49
742 6 49
743 40 -22
744 40 -22
745 40 -22
746 -32 -49
747 -32 -49
748 -32 -49
749 -32 -49
750 -32 -49
751 -32 -49
752 -40 48
753 -40 48
754 -40 48
755 -46 -42
756 -46 -42
757 -46 -42
758 -19 29
759 -19 29
760 -19 29
761 -19 29
762 -19 29
763 11 -45
764 11 -45
765 11 -45
766 11 -45
767 11 -45
768 11 -45
769 11 -45
770 11 -45
771 40 -6
772 40 -6
773 40 -6
774 40 -6
775 40 -6
776 40 -6
777 7 -19
778 7 -19
779 7 -19
780 45 36
781 45 36
782 45 36
783 -24 36
784 -24 36
785 -24 36
786 25 25
787 25 25
788 25 25
789 25 25
790 -26 24
791 -26 24
792 -26 24
793 -26 24
794 -26 24
795 -16 -4
796 -16 -4
797 -16 -4
798 -16 -4
799 33 3
800 33 3
801 33 3
802 -22 -43
803 -22 -43
804 -22 -43
805 -22 -43
806 -22 22
807 -22 22
808 -22 22
809 -22 22
810 -2 -18
811 -2 -18
812 -2 -18
813 -2 -18
814 33 -17
815 33 -17
816 33 -17
817 33 -17
818 33 -17
819 -6 -4
820 -6 -4
821 -6 -4
822 -6 -4
823 -6 -4
824 -6 -4
825 33 -7
826 33 -7
827 33 -7
828 33 -7
829 33 -7
830 33 -7
831 32 -29
832 32 -29
833 32 -29
834 32 -29
835 32 -29
836 32 -29
837 1 27
838 1 27
839 1 27
840 1 27
841 1 27
842 19 -50
843 19 -50
844 19 -50
845 11 6
846 11 6
847 11 6
848 11 6
849 -21 1
850 -21 1
851 -21 1
852 -21 1
853 -21 1
854 -49 -30
855 -49 -30
856 -49 -30
857 -49 -30
858 -49 -30
859 -49 -30
860 -49 -30
861 49 -38
862 49 -38
863 49 -38
864 27 -49
865 27 -49
866 27 -49
867 27 -49
868 27 -49
869 27 -49
870 27 -49
871 12 -29
872 12 -29
873 -31 -31
874 -31 -31
875 -31 -31
876 -31 -31
877 50 -29
878 50 -29
879 50 -29
880 28 -33
881 28 -33
882 28 -33
883 -50 -41
884 -50 -41
885 -50 -41
886 -50 -41
887 42 34
888 42 34
889 42 34
890 42 34
891 42 34
892 42 34
893 42 34
894 11 49
895 11 49
896 11 49
897 11 49
898 11 49
899 11 49
900 11 49
901 4 25
902 4 25
903 4 25
904 4 25
905 4 25
906 4 25
907 -6 12
908 -6 12
909 -6 12
910 -18 -48
911 -18 -48
912 -18 -48
913 -18 -48
914 -18 -48
915 -18 -48
916 -18 -48
917 5 40
918 5 40
919 5 40
920 5 40
921 -40 -14
922 -40 -14
923 -40 -14
924 -40 -14
925 -15 -6
926 -15 -6
927 -15 -6
928 -15 -6
929 -15 -6
930 16 -15
931 16 -15
932 16 -15
933 -3 27
934 -3 27
935 -3 27
936 -10 -40
937 -10 -40
938 -10 -40
DEMAND_SECTION
1 0
2 40
3 20
4 10
5 2
6 2
7 2
8 2
9 1
10 40
11 10
12 2
13 2
14 2
15 1
16 40
17 10
18 40
19 2
20 2
21 2
22 1
23 40
24 10
25 1
26 40
27 20
28 10
29 2
30 2
31 2
32 2
33 40
34 20
35 2
36 2
37 2
38 1
39 40
40 2
41 2
42 40
43 20
44 2
45 2
46 2
47 1
48 20
49 10
50 2
51 2
52 2
53 2
54 1
55 20
56 10
57 2
58 2
59 1
60 20
61 10
62 1
63 40
64 40
65 20
66 40
67 20
68 10
69 2
70 2
71 2
72 2
73 40
74 10
75 2
76 2
77 40
78 40
79 2
80 2
81 2
82 40
83 10
84 2
85 2
86 2
87 1
88 40
89 40
90 2
91 2
92 2
93 2
94 40
95 40
96 10
97 2
98 1
99 40
100 40
101 1
102 40
103 10
104 2
105 2
106 20
107 10
108 2
109 2
110 2
111 1
112 20
113 10
114 2
115 2
116 2
117 2
118 20
119 10
120 2
121 2
122 2
123 1
124 40
125 40
126 10
127 2
128 2
129 2
130 2
131 40
132 10
133 2
134 40
135 20
136 20
137 2
138 2
139 2
140 2
141 1
142 20
143 10
144 2
145 2
146 2
147 40
148 40
149 2
150 20
151 10
152 2
153 2
154 2
155 1
156 40
157 20
158 2
159 2
160 40
161 40
162 2
163 2
164 2
165 40
166 10
167 2
168 2
169 1
170 40
171 40
172 1
173 40
174 40
175 2
176 2
177 2
178 2
179 40
180 2
181 2
182 2
183 2
184 1
185 40
186 20
187 2
188 2
189 1
190 40
191 20
192 10
193 2
194 2
195 1
196 40
197 40
198 10
199 1
200 40
201 40
202 10
203 2
204 2
205 40
206 40
207 10
208 2
209 2
210 1
211 40
212 40
213 10
214 1
215 40
216 20
217 10
218 20
219 2
220 2
221 2
222 40
223 20
224 2
225 40
226 40
227 10
228 2
229 20
230 10
231 2
232 2
233 1
234 40
235 1
236 40
237 20
238 10
239 2
240 2
241 2
242 2
243 20
244 10
245 2
246 2
247 2
248 1
249 40
250 40
251 2
252 2
253 2
254 2
255 40
256 2
257 2
258 2
259 1
260 40
261 20
262 10
263 2
264 2
265 2
266 1
267 40
268 40
269 10
270 2
271 2
272 40
273 40
274 2
275 2
276 2
277 40
278 2
279 2
280 2
281 2
282 40
283 40
284 10
285 2
286 2
287 40
288 2
289 2
290 2
291 2
292 1
293 40
294 40
295 2
296 40
297 20
298 2
299 2
300 20
301 10
302 2
303 2
304 2
305 40
306 10
307 2
308 2
309 2
310 1
311 40
312 40
313 10
314 2
315 40
316 20
317 2
318 40
319 2
320 1
321 40
322 20
323 2
324 2
325 1
326 40
327 40
328 2
329 2
330 2
331 2
332 1
333 40
334 40
335 20
336 20
337 2
338 2
339 2
340 2
341 20
342 10
343 2
344 2
345 40
346 20
347 2
348 2
349 2
350 2
351 1
352 40
353 40
354 10
355 2
356 2
357 1
358 20
359 10
360 2
361 2
362 2
363 1
364 20
365 10
366 2
367 2
368 2
369 2
370 40
371 40
372 10
373 2
374 40
375 20
376 10
377 40
378 2
379 1
380 40
381 20
382 10
383 2
384 1
385 20
386 10
387 2
388 40
389 40
390 2
391 20
392 10
393 2
394 40
395 40
396 2
397 2
398 2
399 40
400 10
401 1
402 40
403 40
404 10
405 2
406 2
407 2
408 1
409 20
410 2
411 2
412 2
413 40
414 40
415 10
416 2
417 2
418 2
419 2
420 40
421 40
422 10
423 2
424 2
425 2
426 2
427 40
428 2
429 2
430 1
431 40
432 20
433 2
434 40
435 20
436 2
437 2
438 2
439 1
440 40
441 20
442 10
443 2
444 1
445 40
446 40
447 10
448 2
449 2
450 2
451 2
452 40
453 20
454 10
455 1
456 20
457 10
458 2
459 2
460 2
461 1
462 40
463 10
464 40
465 10
466 2
467 2
468 2
469 2
470 40
471 10
472 2
473 2
474 2
475 1
476 20
477 2
478 2
479 2
480 2
481 40
482 40
483 10
484 2
485 2
486 2
487 40
488 40
489 10
490 2
491 2
492 1
493 20
494 10
495 2
496 40
497 40
498 2
499 2
500 40
501 20
502 40
503 20
504 2
505 2
506 2
507 2
508 40
509 40
510 10
511 2
512 2
513 2
514 40
515 20
516 10
517 1
518 40
519 20
520 10
521 40
522 20
523 10
524 2
525 40
526 20
527 10
528 2
529 20
530 2
531 2
532 2
533 2
534 1
535 40
536 40
537 40
538 2
539 2
540 2
541 2
542 40
543 2
544 2
545 2
546 2
547 40
548 40
549 2
550 2
551 1
552 40
553 40
554 10
555 2
556 2
557 20
558 2
559 2
560 1
561 40
562 10
563 2
564 1
565 40
566 20
567 2
568 2
569 2
570 2
571 40
572 10
573 1
574 40
575 20
576 10
577 2
578 2
579 2
580 2
581 1
582 40
583 10
584 2
585 2
586 2
587 2
588 1
589 40
590 40
591 2
592 2
593 1
594 40
595 40
596 10
597 1
598 40
599 10
600 2
601 2
602 2
603 2
604 40
605 20
606 2
607 2
608 2
609 2
610 20
611 10
612 2
613 2
614 2
615 2
616 40
617 20
618 10
619 2
620 40
621 20
622 2
623 40
624 20
625 2
626 2
627 2
628 40
629 40
630 10
631 1
632 40
633 2
634 2
635 2
636 40
637 10
638 1
639 40
640 40
641 20
642 40
643 20
644 10
645 2
646 2
647 2
648 2
649 40
650 40
651 2
652 2
653 2
654 1
655 40
656 2
657 40
658 20
659 10
660 2
661 2
662 1
663 40
664 40
665 2
666 2
667 2
668 2
669 40
670 40
671 10
672 2
673 1
674 20
675 10
676 2
677 2
678 2
679 1
680 40
681 20
682 1
683 40
684 10
685 2
686 2
687 2
688 2
689 1
690 40
691 40
692 40
693 20
694 2
695 2
696 2
697 2
698 1
699 40
700 40
701 2
702 2
703 2
704 2
705 1
706 40
707 20
708 2
709 2
710 40
711 40
712 2
713 2
714 2
715 40
716 40
717 10
718 2
719 2
720 1
721 40
722 10
723 2
724 2
725 1
726 40
727 10
728 2
729 2
730 2
731 1
732 40
733 40
734 1
735 40
736 20
737 2
738 2
739 1
740 40
741 2
742 1
743 20
744 10
745 2
746 40
747 40
748 2
749 2
750 2
751 1
752 40
753 40
754 2
755 40
756 20
757 1
758 40
759 20
760 10
761 2
762 2
763 40
764 20
765 10
766 2
767 2
768 2
769 2
770 1
771 40
772 40
773 10
774 2
775 2
776 1
777 20
778 10
779 1
780 40
781 20
782 10
783 20
784 10
785 1
786 40
787 2
788 2
789 1
790 40
791 20
792 2
793 2
794 1
795 40
796 10
797 2
798 1
799 40
800 20
801 2
802 20
803 2
804 2
805 1
806 40
807 10
808 2
809 1
810 40
811 20
812 10
813 1
814 40
815 40
816 10
817 2
818 2
819 20
820 2
821 2
822 2
823 2
824 1
825 40
826 10
827 2
828 2
829 2
830 1
831 40
832 40
833 10
834 2
835 2
836 2
837 40
838 10
839 2
840 2
841 2
842 40
843 20
844 10
845 40
846 2
847 2
848 1
849 40
850 40
851 10
852 2
853 1
854 20
855 10
856 2
857 2
858 2
859 2
860 1
861 40
862 40
863 20
864 40
865 40
866 10
867 2
868 2
869 2
870 2
871 40
872 10
873 40
874 40
875 10
876 1
877 40
878 40
879 2
880 40
881 20
882 1
883 40
884 2
885 2
886 1
887 40
888 40
889 2
890 2
891 2
892 2
893 1
894 40
895 20
896 10
897 2
898 2
899 2
900 1
901 40
902 40
903 2
904 2
905 2
906 2
907 40
908 10
909 1
910 40
911 20
912 2
913 2
914 2
915 2
916 1
917 40
918 10
919 2
920 1
921 40
922 10
923 2
924 2
925 20
926 2
927 2
928 2
929 2
930 40
931 20
932 10
933 40
934 40
935 2
936 40
937 2
938 2
DEPOT_SECTION
1
-1
EOF