SDVRP instances/custom_instances/p10_5_split0.sol
937 -13 10 14 9 12 11 680 679 681 753 752 751 -16 15 758 759 757 263 264 261 260 259 265 262 -20 17 18 21 19 512 508 510 509 507 511 365 364 367 363 368 366 -24 22 573 580 578 575 576 579 577 574 410 409 411 408 923 921 920 922 -30 29 27 26 25 28 31 706 707 705 708 309 307 308 304 305 306 -44 42 41 46 45 43 171 170 169 184 186 187 188 903 904 905 -51 48 53 49 52 50 47 88 87 237 235 236 241 238 240 239 -65 71 518 519 517 147 148 146 -75 72 73 74 462 461 786 570 788 787 571 785 572 -82 81 84 86 149 150 552 554 553 551 228 232 230 231 -83 85 323 322 324 648 877 876 878 420 423 424 742 744 -92 90 91 89 443 441 439 440 442 789 792 793 790 791 806 807 808 805 -97 93 95 94 96 185 597 652 653 651 649 -106 110 108 489 487 488 491 486 268 269 267 266 270 -107 109 918 919 916 917 490 741 740 739 899 896 897 894 893 895 898 599 598 600 601 602 650 -115 114 113 112 111 116 685 682 686 683 688 684 687 884 885 882 883 854 858 859 857 855 853 856 23 928 -118 120 121 117 119 122 253 251 250 252 248 249 522 520 521 523 -127 126 125 128 334 332 244 247 243 245 242 246 396 397 394 393 395 -129 124 123 56 58 54 57 55 592 589 591 588 -136 140 138 135 137 139 98 100 99 870 871 778 777 776 -143 145 142 141 144 216 215 214 199 201 203 200 202 -151 154 153 152 360 499 500 317 318 319 710 709 711 713 712 386 -158 157 155 156 691 696 693 695 692 697 694 845 846 844 847 -161 160 159 162 163 233 234 291 287 288 286 290 289 438 436 435 437 -167 164 166 168 165 37 33 32 34 35 36 222 223 221 610 614 612 613 -175 173 174 176 177 172 502 501 506 503 505 504 615 761 760 -180 181 178 930 931 320 321 603 608 604 -196 198 197 195 342 340 343 341 766 763 762 768 764 769 -207 204 206 205 208 209 274 273 275 272 271 783 784 671 672 -220 219 217 218 700 702 698 867 868 864 863 866 869 654 655 -226 227 225 224 210 212 213 211 555 182 183 179 229 -276 280 278 277 279 596 593 595 594 514 513 516 -293 294 292 715 714 717 719 716 718 -331 328 325 326 327 330 329 860 861 862 636 -333 477 476 479 478 475 373 375 374 303 300 302 301 299 557 559 558 556 -338 335 336 339 337 496 495 872 873 874 875 -344 347 350 349 346 348 313 311 312 310 656 659 661 658 -352 354 61 59 60 841 842 843 704 703 701 699 865 -358 359 362 361 357 689 690 39 40 38 929 -371 370 369 372 431 432 430 66 68 67 69 70 823 820 822 821 819 -376 534 535 189 194 191 193 190 192 563 562 -379 382 383 380 381 296 298 297 295 622 623 626 -385 384 419 421 422 425 281 282 284 285 283 743 816 815 -399 398 400 254 256 255 258 257 417 416 418 415 414 413 412 -427 429 428 426 315 316 314 906 907 908 -452 454 451 935 464 466 465 463 468 345 611 609 -453 467 667 663 662 665 666 664 483 482 485 484 480 481 937 936 -470 471 473 472 474 469 731 732 733 755 754 756 -494 492 493 445 448 444 449 446 447 450 565 568 567 569 564 566 -497 498 749 750 745 748 746 747 911 910 914 913 909 915 912 804 801 802 803 -515 800 799 538 539 536 537 540 675 673 678 676 674 677 643 647 642 641 645 644 646 -525 524 526 527 434 433 101 103 102 104 625 624 -544 545 543 541 542 809 811 812 810 627 630 628 -546 550 548 547 549 850 848 852 849 851 -560 561 133 134 724 723 722 720 634 633 631 -587 584 585 583 582 586 581 407 405 404 402 401 403 406 621 619 -590 457 456 459 455 458 460 780 779 781 887 888 890 889 891 892 886 -606 607 605 827 824 825 770 774 773 775 771 772 798 -617 618 616 782 78 79 80 76 77 729 727 726 730 728 725 -620 377 378 632 640 638 639 737 736 735 738 734 721 -629 765 767 356 355 353 351 389 387 388 528 533 532 530 529 531 660 657 -637 635 831 830 833 835 834 832 879 881 880 -670 669 668 932 934 933 837 -795 794 797 796 927 924 926 925 62 64 63 818 -817 813 814 4 6 1 5 2 3 8 7 392 391 390 828 826 829 -836 840 838 839 131 130 132 105 900 901 902 0 





OBJ=
5906.330
BEST_KNOWN=
0.000